(set-logic QF_S)
(declare-fun var0 () String)
(declare-fun var1 () Int)
(declare-fun var2 () Bool)
(declare-fun var3 () String)
(declare-fun var4 () Int)
(declare-fun var5 () Bool)
(declare-fun var6 () String)
(declare-fun var7 () Int)
(declare-fun var8 () Bool)
(assert (>= var1 var1))
(assert (>= (str.indexof var6 var3 var7) (str.indexof var6 var3 10)))
(assert (str.contains (str.replace var3 var6 var0) (str.at var6 var7)))
(assert (str.suffixof (str.substr var3 var7 var4) (str.substr var3 var1 var4)))
(check-sat)